Version identifier: 22.1.0.0 | 2022-03-09 | 1a383f8ce
CPXPARAM_Threads                                 1
CPXPARAM_MIP_Strategy_VariableSelect             3
CPXPARAM_TimeLimit                               599.99998622700002
1 of 1 MIP starts provided solutions.
MIP start 'm1' defined initial solution with objective 1.0000.
Tried aggregator 1 time.
MIP Presolve eliminated 14 rows and 0 columns.
MIP Presolve modified 446 coefficients.
Reduced MIP has 2413 rows, 10400 columns, and 189090 nonzeros.
Reduced MIP has 10400 binaries, 0 generals, 0 SOSs, and 0 indicators.
Presolve time = 0.20 sec. (319.18 ticks)
Probing time = 0.03 sec. (27.23 ticks)
Tried aggregator 1 time.
Detecting symmetries...
MIP Presolve modified 13 coefficients.
Reduced MIP has 2413 rows, 10400 columns, and 189320 nonzeros.
Reduced MIP has 10400 binaries, 0 generals, 0 SOSs, and 0 indicators.
Presolve time = 0.19 sec. (294.42 ticks)
Probing time = 0.03 sec. (27.26 ticks)
Clique table members: 1597.
MIP emphasis: balance optimality and feasibility.
MIP search method: dynamic search.
Parallel mode: none, using 1 thread.
Root relaxation solution time = 1.93 sec. (2392.46 ticks)

        Nodes                                         Cuts/
   Node  Left     Objective  IInf  Best Integer    Best Bound    ItCnt     Gap

*     0+    0                            1.0000    80200.0000              --- 
      0     0      400.0000  1516        1.0000      400.0000     5817     --- 
      0     0      400.0000   182        1.0000    Cliques: 1     5999     --- 
      0     0      400.0000   182        1.0000      Cuts: 59     7753     --- 
      0     0      400.0000   301        1.0000      Cuts: 15    10391     --- 
*     0+    0                          319.0000      400.0000            25.39%
*     0+    0                          378.0000      400.0000             5.82%
      0     0        cutoff            378.0000      400.0000    10391    5.82%
*     0+    0                          387.0000      400.0000             3.36%
*     0+    0                          393.0000      400.0000             1.78%
*     0+    0                          397.0000      400.0000             0.76%
      0     0        cutoff            397.0000      400.0000    10391    0.76%
Detecting symmetries...
      0     2      400.0000   114      397.0000      400.0000    10391    0.76%
Elapsed time = 62.25 sec. (68216.57 ticks, tree = 0.01 MB, solutions = 6)
      1     3      400.0000   174      397.0000      400.0000    18988    0.76%
      2     4      400.0000   319      397.0000      400.0000    24485    0.76%
      3     5      400.0000   270      397.0000      400.0000    28487    0.76%
      4     6      400.0000   187      397.0000      400.0000    29058    0.76%
      5     7      400.0000   195      397.0000      400.0000    29260    0.76%
      6     8      400.0000   192      397.0000      400.0000    34054    0.76%
      7     9      400.0000   252      397.0000      400.0000    37313    0.76%
      8    10      400.0000   362      397.0000      400.0000    41223    0.76%
      9    11      400.0000   245      397.0000      400.0000    43586    0.76%
     10    12      400.0000   342      397.0000      400.0000    47444    0.76%
Elapsed time = 81.51 sec. (88245.94 ticks, tree = 0.13 MB, solutions = 6)
     12    14      400.0000   318      397.0000      400.0000    50444    0.76%
     14    16      400.0000   317      397.0000      400.0000    51633    0.76%
     16    18      400.0000   337      397.0000      400.0000    53293    0.76%
     18    20      400.0000   399      397.0000      400.0000    57174    0.76%
     20    22      400.0000   318      397.0000      400.0000    62154    0.76%
     22    24      400.0000   434      397.0000      400.0000    65254    0.76%
     24    26      400.0000   294      397.0000      400.0000    68002    0.76%
     26    28      400.0000   261      397.0000      400.0000    69961    0.76%
     29    31      400.0000   227      397.0000      400.0000    70473    0.76%
     32    34      400.0000   191      397.0000      400.0000    73398    0.76%
Elapsed time = 101.42 sec. (108079.57 ticks, tree = 0.61 MB, solutions = 6)
     33    35      400.0000   459      397.0000      400.0000    81722    0.76%
     35    37      400.0000   177      397.0000      400.0000    84026    0.76%
     36    38      400.0000   351      397.0000      400.0000    86649    0.76%
     37    39      400.0000   214      397.0000      400.0000    89859    0.76%
     38    40      400.0000   227      397.0000      400.0000    95700    0.76%
     39    41      400.0000   310      397.0000      400.0000   105737    0.76%
     40    42      400.0000   374      397.0000      400.0000   110476    0.76%
     42    44      400.0000   249      397.0000      400.0000   113001    0.76%
     44    46      400.0000   229      397.0000      400.0000   118248    0.76%
     46    48      400.0000   410      397.0000      400.0000   121746    0.76%
Elapsed time = 126.23 sec. (133799.29 ticks, tree = 0.83 MB, solutions = 6)
     48    50      400.0000   522      397.0000      400.0000   127383    0.76%
     50    52      400.0000   194      397.0000      400.0000   128783    0.76%
     51    53      400.0000   250      397.0000      400.0000   133269    0.76%
     53    55      400.0000   200      397.0000      400.0000   134789    0.76%
     55    57      400.0000   427      397.0000      400.0000   139998    0.76%
     57    59      400.0000   311      397.0000      400.0000   145553    0.76%
     59    61      400.0000   301      397.0000      400.0000   150185    0.76%
     60    62      400.0000   180      397.0000      400.0000   151067    0.76%
     61    63      400.0000   193      397.0000      400.0000   154214    0.76%
     63    65      400.0000   163      397.0000      400.0000   157123    0.76%
Elapsed time = 164.52 sec. (172083.06 ticks, tree = 1.15 MB, solutions = 6)
     64    66      400.0000   202      397.0000      400.0000   159452    0.76%
     66    68      400.0000   273      397.0000      400.0000   163037    0.76%
     68    70      400.0000   338      397.0000      400.0000   166473    0.76%
     70    72      400.0000   262      397.0000      400.0000   169381    0.76%
     72    74      400.0000   199      397.0000      400.0000   172342    0.76%
     74    76      400.0000   213      397.0000      400.0000   175565    0.76%
     77    79      400.0000   224      397.0000      400.0000   177567    0.76%
     79    81      400.0000   222      397.0000      400.0000   180369    0.76%
     82    84      400.0000   359      397.0000      400.0000   186433    0.76%
     84    86      400.0000   233      397.0000      400.0000   189387    0.76%
Elapsed time = 176.48 sec. (184206.32 ticks, tree = 1.61 MB, solutions = 6)
     87    89      400.0000   220      397.0000      400.0000   190476    0.76%
     88    90      400.0000   372      397.0000      400.0000   195409    0.76%
     90    92      400.0000   382      397.0000      400.0000   198961    0.76%
     92    94      400.0000   223      397.0000      400.0000   200085    0.76%
     95    97      400.0000   195      397.0000      400.0000   200917    0.76%
     97    99      400.0000   246      397.0000      400.0000   204582    0.76%
    100   102      400.0000   158      397.0000      400.0000   205657    0.76%
    103   105      400.0000   159      397.0000      400.0000   206060    0.76%
    105   107      400.0000   115      397.0000      400.0000   209826    0.76%
    106   108      400.0000   370      397.0000      400.0000   215673    0.76%
Elapsed time = 189.35 sec. (197281.22 ticks, tree = 2.11 MB, solutions = 6)
    108   110      400.0000   160      397.0000      400.0000   218044    0.76%
    110   112      400.0000   113      397.0000      400.0000   220795    0.76%
    112   114      400.0000   121      397.0000      400.0000   222815    0.76%
    113   115      400.0000   213      397.0000      400.0000   229398    0.76%
    115   117      400.0000   267      397.0000      400.0000   234149    0.76%
    117   119      400.0000   243      397.0000      400.0000   236640    0.76%
    119   121      400.0000   200      397.0000      400.0000   238869    0.76%
    121   123      400.0000   248      397.0000      400.0000   241309    0.76%
    123   125      400.0000   226      397.0000      400.0000   242684    0.76%
    125   127      400.0000   238      397.0000      400.0000   244490    0.76%
Elapsed time = 205.09 sec. (213342.05 ticks, tree = 2.51 MB, solutions = 6)
    128   130      400.0000   190      397.0000      400.0000   246054    0.76%
    130   132      400.0000   241      397.0000      400.0000   249890    0.76%
    132   134      400.0000   227      397.0000      400.0000   255638    0.76%
    134   136      400.0000   441      397.0000      400.0000   261542    0.76%
    136   138      400.0000   168      397.0000      400.0000   264373    0.76%
    138   140      400.0000   313      397.0000      400.0000   267533    0.76%
    141   143      400.0000   181      397.0000      400.0000   269593    0.76%
    143   145      400.0000   360      397.0000      400.0000   273188    0.76%
    145   147      400.0000   454      397.0000      400.0000   276392    0.76%
    147   149      400.0000   447      397.0000      400.0000   280862    0.76%
Elapsed time = 225.22 sec. (233180.97 ticks, tree = 3.01 MB, solutions = 6)
    149   151      400.0000   577      397.0000      400.0000   286181    0.76%
    151   153      400.0000   335      397.0000      400.0000   296288    0.76%
    153   155      400.0000   235      397.0000      400.0000   301499    0.76%
    155   157      400.0000   470      397.0000      400.0000   306491    0.76%
    158   160      400.0000   340      397.0000      400.0000   310380    0.76%
    160   162      400.0000   124      397.0000      400.0000   311065    0.76%
    161   163      400.0000   289      397.0000      400.0000   314067    0.76%
    163   165      400.0000   414      397.0000      400.0000   318844    0.76%
    165   167      400.0000   133      397.0000      400.0000   320602    0.76%
    167   169      400.0000   346      397.0000      400.0000   324209    0.76%
Elapsed time = 247.21 sec. (255128.96 ticks, tree = 3.39 MB, solutions = 6)
    169   171      400.0000   132      397.0000      400.0000   326687    0.76%
    171   173      400.0000   384      397.0000      400.0000   330764    0.76%
    173   175      400.0000   343      397.0000      400.0000   334830    0.76%
    175   177      400.0000   321      397.0000      400.0000   337234    0.76%
    177   179      400.0000   283      397.0000      400.0000   338902    0.76%
    179   181      400.0000   353      397.0000      400.0000   342670    0.76%
    181   183      400.0000   169      397.0000      400.0000   344982    0.76%
    183   185      400.0000   323      397.0000      400.0000   348433    0.76%
    185   187      400.0000   194      397.0000      400.0000   349170    0.76%
    191   193      400.0000   131      397.0000      400.0000   356011    0.76%
Elapsed time = 266.69 sec. (274286.70 ticks, tree = 3.96 MB, solutions = 6)
    195   197      400.0000   547      397.0000      400.0000   363200    0.76%
    201   203      400.0000   271      397.0000      400.0000   368592    0.76%
    205   207      400.0000   373      397.0000      400.0000   376447    0.76%
    210   212      400.0000   296      397.0000      400.0000   383569    0.76%
    215   217      400.0000   240      397.0000      400.0000   391053    0.76%
    220   222      400.0000   231      397.0000      400.0000   398256    0.76%
    225   227      400.0000   280      397.0000      400.0000   408320    0.76%
    230   232      400.0000   246      397.0000      400.0000   415015    0.76%
    235   237      400.0000   228      397.0000      400.0000   425191    0.76%
    238   240      400.0000   515      397.0000      400.0000   436151    0.76%
Elapsed time = 311.68 sec. (318417.41 ticks, tree = 5.02 MB, solutions = 6)
    241   243      400.0000   438      397.0000      400.0000   444061    0.76%
    245   246      399.4667   390      397.0000      400.0000   454195    0.76%
    249   250      400.0000   267      397.0000      400.0000   464657    0.76%
    254   254      399.8571   356      397.0000      400.0000   475831    0.76%
    260   258      399.0000   362      397.0000      400.0000   487743    0.76%
    267   265      400.0000   232      397.0000      400.0000   494196    0.76%
    273   267      399.4762   449      397.0000      400.0000   507232    0.76%
    280   273      400.0000   198      397.0000      400.0000   516709    0.76%
    285   276      400.0000   270      397.0000      400.0000   529407    0.76%
    291   280      399.5714   401      397.0000      400.0000   541051    0.76%
Elapsed time = 363.21 sec. (366707.88 ticks, tree = 5.89 MB, solutions = 6)
    296   283      399.0000   292      397.0000      400.0000   552139    0.76%
    301   287      399.0000   263      397.0000      400.0000   565205    0.76%
    308   292    infeasible            397.0000      400.0000   575625    0.76%
    316   297      399.0000   198      397.0000      400.0000   589683    0.76%
    321   301      399.0000   188      397.0000      400.0000   600212    0.76%
    328   305      399.0000   247      397.0000      400.0000   610694    0.76%
    335   310    infeasible            397.0000      400.0000   621811    0.76%
    346   319      399.0000   161      397.0000      400.0000   630903    0.76%
    357   328      399.0000   172      397.0000      400.0000   641267    0.76%
    368   331      399.0000   137      397.0000      400.0000   654513    0.76%
Elapsed time = 409.49 sec. (408575.30 ticks, tree = 7.06 MB, solutions = 6)
    380   337    infeasible            397.0000      400.0000   667039    0.76%
    392   345      399.0000   120      397.0000      400.0000   675729    0.76%
    403   349    infeasible            397.0000      400.0000   689565    0.76%
    412   351      399.0000   157      397.0000      400.0000   703313    0.76%
    426   359    infeasible            397.0000      400.0000   714926    0.76%
    438   365      399.0000   129      397.0000      400.0000   726637    0.76%
    447   366      399.0000   139      397.0000      400.0000   741223    0.76%
    458   369      399.0000   145      397.0000      400.0000   757450    0.76%
    469   378      399.0000   129      397.0000      400.0000   766054    0.76%
    478   381      399.0000   252      397.0000      400.0000   782562    0.76%
Elapsed time = 455.66 sec. (449289.01 ticks, tree = 8.19 MB, solutions = 6)
    483   386      399.0000    90      397.0000      400.0000   789462    0.76%
    494   390      399.0000   104      397.0000      400.0000   802382    0.76%
    505   396      399.0000   128      397.0000      400.0000   814685    0.76%
    518   401      398.0000   177      397.0000      400.0000   828264    0.76%
    523   402      400.0000   362      397.0000      400.0000   841330    0.76%
    530   409      400.0000   297      397.0000      400.0000   846738    0.76%
    536   415      400.0000   283      397.0000      400.0000   852869    0.76%
    542   421      400.0000   209      397.0000      400.0000   860498    0.76%
    546   425      400.0000   254      397.0000      400.0000   868354    0.76%
    551   430      400.0000   194      397.0000      400.0000   874750    0.76%
Elapsed time = 500.87 sec. (491631.78 ticks, tree = 9.34 MB, solutions = 6)
    554   433      400.0000   279      397.0000      400.0000   883664    0.76%
    559   438      400.0000   369      397.0000      400.0000   891675    0.76%
    563   442      400.0000   317      397.0000      400.0000   901208    0.76%
    567   446      400.0000   347      397.0000      400.0000   911321    0.76%
    573   451      400.0000   206      397.0000      400.0000   917603    0.76%
    577   454      400.0000   224      397.0000      400.0000   925041    0.76%
    582   459      400.0000   267      397.0000      400.0000   932340    0.76%
    586   463      400.0000   604      397.0000      400.0000   940962    0.76%
    592   468      400.0000   214      397.0000      400.0000   950277    0.76%
    598   474      400.0000   159      397.0000      400.0000   960182    0.76%
Elapsed time = 547.13 sec. (537447.64 ticks, tree = 10.34 MB, solutions = 6)
Starting limited solution polishing.
*   600+    2                          400.0000      400.0000             0.00%

Clique cuts applied:  14
Zero-half cuts applied:  8

Root node processing (before b&c):
  Real time             =   62.08 sec. (68066.20 ticks)
Sequential b&c:
  Real time             =  487.03 sec. (471298.86 ticks)
                          ------------
Total (root+branch&cut) =  549.11 sec. (539365.06 ticks)
Primal:	400
Dual:	400
Status:	Optimal
Time:	549.09
Sequence:
	22
	7
	12
	9
	20
	1
	21
	5
	16
	6
	20
	3
	20
	5
	19
	5
	5
	16
	7
	13
	9
	12
	7
	23
	0
	21
	9
	12
	7
	23
	1
	20
	9
	13
	7
	23
	1
	20
	9
	15
	5
	18
	5
	20
	3
	20
	8
	16
	5
	20
	3
	21
	5
	16
	5
	22
	3
	20
	5
	16
	7
	12
	9
	20
	1
	24
	5
	12
	9
	21
	1
	23
	5
	12
	11
	12
	6
	23
	1
	21
	9
	13
	5
	23
	1
	21
	5
	16
	5
	21
	0
	21
	9
	12
	5
	18
	7
	12
	9
	13
	5
	21
	1
	23
	5
	13
	5
	9
	12
	7
	18
	5
	6
	16
	7
	7
	16
	5
	12
	11
	21
	0
	23
	5
	14
	9
	20
	1
	20
	11
	12
	6
	23
	1
	21
	9
	13
	5
	14
	9
	21
	0
	23
	7
	12
	9
	21
	0
	23
	7
	12
	7
	23
	0
	21
	9
	14
	5
	23
	1
	20
	8
	16
	5
	20
	3
	22
	5
	16
	5
	21
	1
	23
	5
	12
	11
	20
	0
	21
	9
	14
	5
	23
	1
	20
	11
	12
	5
	21
	2
	21
	5
	16
	7
	12
	5
	18
	5
	15
	5
	16
	7
	5
	18
	6
	20
	3
	20
	7
	16
	5
	21
	2
	21
	5
	16
	7
	12
	7
	20
	2
	21
	5
	18
	5
	13
	11
	20
	1
	23
	6
	12
	11
	20
	1
	20
	9
	12
	7
	23
	0
	21
	9
	12
	5
	19
	5
	20
	1
	23
	7
	12
	9
	12
	7
	12
	9
	21
	0
	23
	7
	12
	7
	9
	13
	5
	18
	5
	21
	0
	23
	7
	12
	11
	13
	5
	23
	1
	20
	10
	12
	7
	11
	12
	5
	20
	4
	21
	5
	16
	5
	21
	2
	21
	5
	16
	7
	20
	0
	23
	7
	12
	7
	16
	5
	7
	17
	7
	12
	9
	20
	1
	20
	8
	16
	5
	14
	9
	20
	1
	20
	10
	1
	20
	9
	14
	5
	18
	6
	20
	3
	20
	5
	18
	6
	14
	9
	20
	1
	23
	7
	12
	10
	20
	1
	23
	7
	13
	9
	20
	1
	20
	11
	12
	6
	20
	3
	20
	7
	16
	5
	13
	11
	20
	1
	23
	5
	14
	9
	20
	0
	20
	11
	14
	5
	16
	6
	21
	1
	23
	5
	12
	11
	6
	14
	9
	20
	1
	20
	11
	12
	6
	18
	5
	14
	9
	5
	14
	9
	22
